peakDumbCharging = 11100; 
Machine = anon_enum(16); 
machineSpeed = [3700,3700,3700,3700,3700,3700,3700,3700,3700,3700,3700,3700,3700,3700,3700,3700]; 
machineLoad = [3700,3700,3700,3700,3700,3700,3700,3700,3700,3700,3700,3700,3700,3700,3700,3700]; 
Car = anon_enum(9); 
demandCar = [16080,31960,2160,12720,10040,18360,8800,12200,6400]; 
arrivalCar = [79,71,70,65,51,51,49,45,41]; 
departureCar = [88,82,72,71,56,58,55,50,45]; 
